8603043480840384882507,5,1,2,05,1,1,2,012,2,1,2,011,9,1,2,02,2,1,2,05,3,1,2,012,9,1,2,06,14,1,2,03,13,1,2,013,3,1,2,015,10,1,2,011,1,1,2,011,1,1,2,03,1,1,2,013,2,1,2,02,12,1,2,04,13,1,2,09,1,1,2,05,7,1,2,011,14,1,2,010,12,1,2,011,6,1,2,09,13,1,2,011,13,1,2,014,14,1,2,05,6,1,2,07,7,1,2,09,12,1,2,04,5,1,2,08,9,1,2,012,5,1,2,015,14,1,2,08,9,1,2,03,11,1,2,01,14,1,2,013,13,1,2,013,11,1,2,015,1,1,2,05,4,1,2,03,1,1,2,08,8,1,2,01,7,1,2,07,10,1,2,03,14,1,2,014,3,1,2,08,3,1,2,013,11,1,2,015,13,1,2,010,15,1,2,012,1,1,2,0